p cnf 23 11
9 20 17 -10 0
-16 19 -6 11 -20 -18 15 0
3 -12 5 -21 -4 13 0
-14 13 4 -12 -21 -3 0
3 -13 5 -21 -4 14 0
1 -19 22 -2 0
3 -12 8 -7 -22 0
-8 -22 21 7 0
-14 -4 13 23 0
2 3 7 -23 -19 -12 -8 -1 0
-23 -20 5 0
